c2_10_3

VEHICLE
NUMBER   CAPACITY
250     700

CUSTOMER
CUST NO. XCOORD.  YCOORD.  DEMAND  READY TIME DUE DATE  SERVICE TIME

0   250    250     0     0    3914     0
151 63 166 30 0 3619 90
683 107 168 20 0 3660 90
407 65 164 20 2595 2755 90
121 63 159 20 1009 1169 90
313 80 141 30 494 654 90
422 83 151 10 0 3630 90
281 94 130 10 0 3628 90
636 114 169 20 2612 2772 90
480 59 159 10 0 3613 90
914 77 133 10 709 869 90
553 77 172 20 2976 3136 90
550 95 160 10 0 3645 90
643 71 163 20 0 3625 90
449 96 152 20 0 3642 90
933 74 165 10 0 3629 90
18 90 168 20 3080 3240 90
963 78 141 30 0 3621 90
74 101 179 20 2412 2572 90
787 59 163 20 2311 2471 90
17 67 153 20 0 3617 90
158 61 170 30 0 3619 90
620 67 160 10 2690 2850 90
605 71 139 30 807 967 90
